db/data/306502830222839272592819121861316325300.z3.out
-------------------
2500.092004442
